%%% static parameters %%%
timespan = 1;
Fact = [2];
Distr1 = [5];
Distr2 = [10];
Clients_N = [100];
Demand_W = [15];
Lt0 = [4];
Lt1 = [4];
SS_ = [0.85];
DS_D = [8];
K = [200];
MA = [500];
%%% dynamic parameters %%%
lost_ratio_sales_ret_th = 0.4158623085423987;
lost_ratio_sales_ret_w = 45;
lost_ratio_sales_dis_th = 0.899853327625143;
lost_ratio_sales_dis_w = 53;
lost_ratio_sales_fac_th = 0.9443909722871042;
lost_ratio_sales_fac_w = 9;
stock_customer_MA_mean_relative_th = 0.9372352100911112;
stock_customer_MA_mean_relative_w = 78;
stock_distributor_MA_mean_relative_th = 0.6524437680282281;
stock_distributor_MA_mean_relative_w = 29;
stock_retailer_MA_mean_relative_th = 0.26947096513070734;
stock_retailer_MA_mean_relative_w = 58;
stock_factory_MA_mean_relative_th = 0.7460762843105122;
stock_factory_MA_mean_relative_w = 1;
